letting n be 12
letting exclusions be [
]
letting assignments be [
[7, 2, 2, 4]
,
[3, 4, 2, 11]
,
[1, 4, 1, 10]
,
[6, 3, 1, 1]
,
[8, 4, 1, 8]
,
[6, 2, 2, 7]
,
[2, 6, 2, 5]
,
[6, 5, 2, 5]
,
[11, 5, 1, 6]
,
[5, 1, 1, 3]
]
